c uprop, v00.0, 
c reading from data/prog93.c.cnf
c done reading: 0.003388
p cnf 181 869
-88 -109 0
-88 -105 0
88 105 109 0
-82 105 109 0
-82 -105 -109 0
82 105 -109 0
82 -105 109 0
88 -100 0
-98 -100 0
-88 98 100 0
-88 -93 98 0
88 -93 -98 0
88 93 98 0
-88 93 -98 0
-89 100 0
-86 -89 0
86 89 -100 0
-84 86 -100 0
-84 -86 100 0
84 86 100 0
84 -86 -100 0
-83 89 0
-80 -83 0
80 83 -89 0
80 -89 -107 0
-80 89 -107 0
80 89 107 0
-80 -89 107 0
83 -111 0
-102 -111 0
-83 102 111 0
-83 102 -112 0
83 -102 -112 0
83 102 112 0
-83 -102 112 0
111 -113 0
-95 -113 0
95 -111 113 0
95 -111 -114 0
-95 111 -114 0
95 111 114 0
-95 -111 114 0
113 -115 0
-91 -115 0
91 -113 115 0
91 -113 -116 0
-91 113 -116 0
91 113 116 0
-91 -113 116 0
105 -117 0
109 -117 0
-105 -109 117 0
-105 -109 -118 0
105 109 -118 0
-105 109 118 0
105 -109 118 0
-98 -105 119 0
-98 -117 119 0
-105 -117 119 0
98 105 -119 0
98 117 -119 0
105 117 -119 0
98 -119 -120 0
105 -119 -120 0
117 -119 -120 0
-98 119 120 0
-105 119 120 0
-117 119 120 0
-98 -105 -117 120 0
98 105 117 -120 0
-86 -98 121 0
-86 -119 121 0
-98 -119 121 0
86 98 -121 0
86 119 -121 0
98 119 -121 0
86 -121 -122 0
98 -121 -122 0
119 -121 -122 0
-86 121 122 0
-98 121 122 0
-119 121 122 0
-86 -98 -119 122 0
86 98 119 -122 0
-80 -86 123 0
-80 -121 123 0
-86 -121 123 0
80 86 -123 0
80 121 -123 0
86 121 -123 0
-78 80 -123 0
-78 86 -123 0
-78 121 -123 0
78 -80 123 0
78 -86 123 0
78 -121 123 0
78 -80 -86 -121 0
-78 80 86 121 0
77 -80 -102 0
77 -102 -123 0
77 -80 -123 0
-77 80 102 0
-77 102 123 0
-77 80 123 0
-76 -77 102 0
-76 -77 80 0
-76 -77 123 0
76 77 -102 0
76 77 -80 0
76 77 -123 0
76 -80 -102 -123 0
-76 80 102 123 0
75 -95 -102 0
75 -77 -95 0
75 -77 -102 0
-75 95 102 0
-75 77 95 0
-75 77 102 0
-74 -75 95 0
-74 -75 102 0
-74 -75 77 0
74 75 -95 0
74 75 -102 0
74 75 -77 0
74 -77 -95 -102 0
-74 77 95 102 0
73 -91 -95 0
73 -75 -91 0
73 -75 -95 0
-73 91 95 0
-73 75 91 0
-73 75 95 0
-73 91 -108 0
-73 95 -108 0
-73 75 -108 0
73 -91 108 0
73 -95 108 0
73 -75 108 0
-75 -91 -95 108 0
75 91 95 -108 0
91 -104 0
73 -104 0
-73 -91 104 0
-73 -91 -97 0
73 91 -97 0
73 -91 97 0
-73 91 97 0
-85 -109 0
-85 -118 0
85 109 118 0
-79 109 118 0
-79 -109 -118 0
79 -109 118 0
79 109 -118 0
85 -101 0
-101 -120 0
-85 101 120 0
-85 -94 120 0
85 -94 -120 0
85 94 120 0
-85 94 -120 0
-90 101 0
-90 -122 0
90 -101 122 0
-72 -101 122 0
-72 101 -122 0
72 101 122 0
72 -101 -122 0
-69 90 0
-69 -78 0
69 78 -90 0
-66 78 -90 0
-66 -78 90 0
66 78 90 0
66 -78 -90 0
-65 69 0
-65 -76 0
65 -69 76 0
-64 -69 76 0
-64 69 -76 0
64 69 76 0
64 -69 -76 0
-63 65 0
-63 -74 0
63 -65 74 0
-62 -65 74 0
-62 65 -74 0
62 65 74 0
62 -65 -74 0
-61 63 0
-61 -108 0
61 -63 108 0
-60 -63 108 0
-60 63 -108 0
60 63 108 0
60 -63 -108 0
-59 61 0
-59 -97 0
59 -61 97 0
-58 -61 97 0
-58 61 -97 0
58 61 97 0
58 -61 -97 0
-57 59 0
-57 -104 0
57 -59 104 0
-56 -59 104 0
-56 59 -104 0
56 59 104 0
56 -59 -104 0
-55 -70 0
-55 -67 0
55 67 70 0
67 70 -124 0
-67 -70 -124 0
67 -70 124 0
-67 70 124 0
55 -125 0
-125 -126 0
-55 125 126 0
-55 126 -128 0
55 -126 -128 0
55 126 128 0
-55 -126 128 0
125 -129 0
-129 -130 0
-125 129 130 0
-125 130 -132 0
125 -130 -132 0
125 130 132 0
-125 -130 132 0
129 -133 0
-133 -134 0
-129 133 134 0
-129 134 -136 0
129 -134 -136 0
129 134 136 0
-129 -134 136 0
133 -137 0
-137 -138 0
-133 137 138 0
-133 138 -140 0
133 -138 -140 0
133 138 140 0
-133 -138 140 0
137 -141 0
-141 -142 0
-137 141 142 0
-137 142 -144 0
137 -142 -144 0
137 142 144 0
-137 -142 144 0
141 -145 0
-145 -146 0
-141 145 146 0
-141 146 -148 0
141 -146 -148 0
141 146 148 0
-141 -146 148 0
67 -149 0
70 -149 0
-67 -70 149 0
-67 -70 -150 0
67 70 -150 0
-67 70 150 0
67 -70 150 0
-67 -126 151 0
-126 -149 151 0
-67 -149 151 0
67 126 -151 0
126 149 -151 0
67 149 -151 0
126 -151 -152 0
67 -151 -152 0
149 -151 -152 0
-126 151 152 0
-67 151 152 0
-149 151 152 0
-67 -126 -149 152 0
67 126 149 -152 0
-126 -130 153 0
-130 -151 153 0
-126 -151 153 0
126 130 -153 0
130 151 -153 0
126 151 -153 0
130 -153 -154 0
126 -153 -154 0
151 -153 -154 0
-130 153 154 0
-126 153 154 0
-151 153 154 0
-126 -130 -151 154 0
126 130 151 -154 0
-130 -134 155 0
-134 -153 155 0
-130 -153 155 0
130 134 -155 0
134 153 -155 0
130 153 -155 0
134 -155 -156 0
130 -155 -156 0
153 -155 -156 0
-134 155 156 0
-130 155 156 0
-153 155 156 0
-130 -134 -153 156 0
130 134 153 -156 0
-134 -138 157 0
-138 -155 157 0
-134 -155 157 0
134 138 -157 0
138 155 -157 0
134 155 -157 0
138 -157 -158 0
134 -157 -158 0
155 -157 -158 0
-138 157 158 0
-134 157 158 0
-155 157 158 0
-134 -138 -155 158 0
134 138 155 -158 0
-138 -142 159 0
-142 -157 159 0
-138 -157 159 0
138 142 -159 0
142 157 -159 0
138 157 -159 0
142 -159 -160 0
138 -159 -160 0
157 -159 -160 0
-142 159 160 0
-138 159 160 0
-157 159 160 0
-138 -142 -157 160 0
138 142 157 -160 0
-142 -146 161 0
-146 -159 161 0
-142 -159 161 0
142 146 -161 0
146 159 -161 0
142 159 -161 0
146 -161 -162 0
142 -161 -162 0
159 -161 -162 0
-146 161 162 0
-142 161 162 0
-159 161 162 0
-142 -146 -159 162 0
142 146 159 -162 0
146 -163 0
161 -163 0
-146 -161 163 0
-146 -161 -164 0
146 161 -164 0
-146 161 164 0
146 -161 164 0
152 -165 0
70 -165 0
-70 -152 165 0
-70 -152 -166 0
70 152 -166 0
70 -152 166 0
-70 152 166 0
-67 -154 167 0
-154 -165 167 0
-67 -165 167 0
67 154 -167 0
154 165 -167 0
67 165 -167 0
154 -167 -168 0
67 -167 -168 0
165 -167 -168 0
-154 167 168 0
-67 167 168 0
-165 167 168 0
-67 -154 -165 168 0
67 154 165 -168 0
-126 -156 169 0
-156 -167 169 0
-126 -167 169 0
126 156 -169 0
156 167 -169 0
126 167 -169 0
156 -169 -170 0
126 -169 -170 0
167 -169 -170 0
-156 169 170 0
-126 169 170 0
-167 169 170 0
-126 -156 -167 170 0
126 156 167 -170 0
-130 -158 171 0
-158 -169 171 0
-130 -169 171 0
130 158 -171 0
158 169 -171 0
130 169 -171 0
158 -171 -172 0
130 -171 -172 0
169 -171 -172 0
-158 171 172 0
-130 171 172 0
-169 171 172 0
-130 -158 -169 172 0
130 158 169 -172 0
-134 -160 173 0
-160 -171 173 0
-134 -171 173 0
134 160 -173 0
160 171 -173 0
134 171 -173 0
160 -173 -174 0
134 -173 -174 0
171 -173 -174 0
-160 173 174 0
-134 173 174 0
-171 173 174 0
-134 -160 -171 174 0
134 160 171 -174 0
-138 -162 175 0
-162 -173 175 0
-138 -173 175 0
138 162 -175 0
162 173 -175 0
138 173 -175 0
162 -175 -176 0
138 -175 -176 0
173 -175 -176 0
-162 175 176 0
-138 175 176 0
-173 175 176 0
-138 -162 -173 176 0
138 162 173 -176 0
-142 -164 177 0
-164 -175 177 0
-142 -175 177 0
142 164 -177 0
164 175 -177 0
142 175 -177 0
164 -177 -178 0
142 -177 -178 0
175 -177 -178 0
-164 177 178 0
-142 177 178 0
-175 177 178 0
-142 -164 -175 178 0
142 164 175 -178 0
-146 -163 179 0
-163 -177 179 0
-146 -177 179 0
146 163 -179 0
163 177 -179 0
146 177 -179 0
163 -179 -180 0
146 -179 -180 0
177 -179 -180 0
-163 179 180 0
-146 179 180 0
-177 179 180 0
-146 -163 -177 180 0
146 163 177 -180 0
168 -181 0
70 -181 0
-70 -168 181 0
-70 -110 -168 0
70 -110 168 0
70 110 -168 0
-70 110 168 0
-67 106 -170 0
106 -170 -181 0
-67 106 -181 0
67 -106 170 0
-106 170 181 0
67 -106 181 0
-99 -106 170 0
67 -99 -106 0
-99 -106 181 0
99 106 -170 0
-67 99 106 0
99 106 -181 0
-67 99 -170 -181 0
67 -99 170 181 0
87 -126 -172 0
87 -106 -172 0
87 -106 -126 0
-87 126 172 0
-87 106 172 0
-87 106 126 0
-81 -87 172 0
-81 -87 126 0
-81 -87 106 0
81 87 -172 0
81 87 -126 0
81 87 -106 0
81 -106 -126 -172 0
-81 106 126 172 0
103 -130 -174 0
-87 103 -174 0
-87 103 -130 0
-103 130 174 0
87 -103 174 0
87 -103 130 0
-96 -103 174 0
-96 -103 130 0
87 -96 -103 0
96 103 -174 0
96 103 -130 0
-87 96 103 0
-87 96 -130 -174 0
87 -96 130 174 0
92 -134 -176 0
92 -103 -176 0
92 -103 -134 0
-92 134 176 0
-92 103 176 0
-92 103 134 0
-71 -92 176 0
-71 -92 134 0
-71 -92 103 0
71 92 -176 0
71 92 -134 0
71 92 -103 0
71 -103 -134 -176 0
-71 103 134 176 0
68 -138 -178 0
68 -92 -178 0
68 -92 -138 0
-68 138 178 0
-68 92 178 0
-68 92 138 0
-68 -127 178 0
-68 -127 138 0
-68 92 -127 0
68 127 -178 0
68 127 -138 0
68 -92 127 0
-92 127 -138 -178 0
92 -127 138 178 0
131 -142 -180 0
-68 131 -180 0
-68 131 -142 0
-131 142 180 0
68 -131 180 0
68 -131 142 0
-131 -135 180 0
-131 -135 142 0
68 -131 -135 0
131 135 -180 0
131 135 -142 0
-68 131 135 0
-68 135 -142 -180 0
68 -135 142 180 0
139 -146 -179 0
-131 139 -179 0
-131 139 -146 0
-139 146 179 0
131 -139 179 0
131 -139 146 0
-139 -143 179 0
-139 -143 146 0
131 -139 -143 0
139 143 -179 0
139 143 -146 0
-131 139 143 0
-131 143 -146 -179 0
131 -143 146 179 0
81 -147 0
70 -147 0
-70 -81 147 0
-54 -70 -81 0
-54 70 81 0
54 70 -81 0
54 -70 81 0
53 -67 -96 0
53 -96 -147 0
53 -67 -147 0
-53 67 96 0
-53 96 147 0
-53 67 147 0
-52 -53 96 0
-52 -53 67 0
-52 -53 147 0
52 53 -96 0
52 53 -67 0
52 53 -147 0
52 -67 -96 -147 0
-52 67 96 147 0
51 -71 -126 0
51 -53 -71 0
51 -53 -126 0
-51 71 126 0
-51 53 71 0
-51 53 126 0
-50 -51 71 0
-50 -51 126 0
-50 -51 53 0
50 51 -71 0
50 51 -126 0
50 51 -53 0
50 -53 -71 -126 0
-50 53 71 126 0
49 -127 -130 0
49 -51 -127 0
49 -51 -130 0
-49 127 130 0
-49 51 127 0
-49 51 130 0
-48 -49 127 0
-48 -49 130 0
-48 -49 51 0
48 49 -127 0
48 49 -130 0
48 49 -51 0
48 -51 -127 -130 0
-48 51 127 130 0
47 -134 -135 0
47 -49 -135 0
47 -49 -134 0
-47 134 135 0
-47 49 135 0
-47 49 134 0
-46 -47 135 0
-46 -47 134 0
-46 -47 49 0
46 47 -135 0
46 47 -134 0
46 47 -49 0
46 -49 -134 -135 0
-46 49 134 135 0
45 -138 -143 0
45 -47 -143 0
45 -47 -138 0
-45 138 143 0
-45 47 143 0
-45 47 138 0
-44 -45 143 0
-44 -45 138 0
-44 -45 47 0
44 45 -143 0
44 45 -138 0
44 45 -47 0
44 -47 -138 -143 0
-44 47 138 143 0
43 -139 -142 0
43 -45 -139 0
43 -45 -142 0
-43 139 142 0
-43 45 139 0
-43 45 142 0
-42 -43 139 0
-42 -43 142 0
-42 -43 45 0
42 43 -139 0
42 43 -142 0
42 43 -45 0
42 -45 -139 -142 0
-42 45 139 142 0
-41 146 0
-41 43 0
41 -43 -146 0
-40 -43 -146 0
-40 43 146 0
40 43 -146 0
40 -43 146 0
-39 -70 0
-39 -150 0
39 70 150 0
-38 70 150 0
-38 -70 -150 0
38 -70 150 0
38 70 -150 0
-37 39 0
-37 -166 0
37 -39 166 0
-36 -39 166 0
-36 39 -166 0
36 39 166 0
36 -39 -166 0
-35 37 0
-35 -110 0
35 -37 110 0
-34 -37 110 0
-34 37 -110 0
34 37 110 0
34 -37 -110 0
-33 35 0
-33 -99 0
33 -35 99 0
-32 -35 99 0
-32 35 -99 0
32 35 99 0
32 -35 -99 0
-31 33 0
-31 -54 0
31 -33 54 0
-30 -33 54 0
-30 33 -54 0
30 33 54 0
30 -33 -54 0
-29 31 0
-29 -52 0
29 -31 52 0
-28 -31 52 0
-28 31 -52 0
28 31 52 0
28 -31 -52 0
-27 29 0
-27 -50 0
27 -29 50 0
-26 -29 50 0
-26 29 -50 0
26 29 50 0
26 -29 -50 0
-25 27 0
-25 -48 0
25 -27 48 0
-24 -27 48 0
-24 27 -48 0
24 27 48 0
24 -27 -48 0
-23 25 0
-23 -46 0
23 -25 46 0
-22 -25 46 0
-22 25 -46 0
22 25 46 0
22 -25 -46 0
-21 23 0
-21 -44 0
21 -23 44 0
-20 -23 44 0
-20 23 -44 0
20 23 44 0
20 -23 -44 0
-19 21 0
-19 -42 0
19 -21 42 0
-18 -21 42 0
-18 21 -42 0
18 21 42 0
18 -21 -42 0
-17 19 0
-17 -40 0
17 -19 40 0
-16 -19 40 0
-16 19 -40 0
16 19 40 0
16 -19 -40 0
-15 17 0
-15 -41 0
15 -17 41 0
-14 -17 41 0
-14 17 -41 0
14 17 41 0
14 -17 -41 0
-13 109 0
-13 70 0
13 -70 -109 0
70 -109 0
-70 109 0
12 -118 -150 0
12 -13 -118 0
12 -13 -150 0
-12 118 150 0
-12 13 118 0
-12 13 150 0
-12 118 0
-12 150 0
-12 13 0
13 118 150 0
11 -120 -166 0
11 -12 -120 0
11 -12 -166 0
-11 120 166 0
-11 12 120 0
-11 12 166 0
-11 120 0
-11 166 0
-11 12 0
12 120 166 0
10 -110 -122 0
10 -11 -122 0
10 -11 -110 0
-10 110 122 0
-10 11 122 0
-10 11 110 0
-10 122 0
-10 110 0
-10 11 0
11 110 122 0
9 -78 -99 0
9 -10 -78 0
9 -10 -99 0
-9 78 99 0
-9 10 78 0
-9 10 99 0
9 -78 0
9 -99 0
9 -10 0
-10 -78 -99 0
8 -54 -76 0
8 -9 -76 0
8 -9 -54 0
-8 54 76 0
-8 9 76 0
-8 9 54 0
8 -76 0
8 -54 0
8 -9 0
-9 -54 -76 0
7 -52 -74 0
7 -8 -74 0
7 -8 -52 0
-7 52 74 0
-7 8 74 0
-7 8 52 0
-7 74 0
-7 52 0
-7 8 0
8 52 74 0
6 -50 -108 0
6 -7 -108 0
6 -7 -50 0
-6 50 108 0
-6 7 108 0
-6 7 50 0
-6 108 0
-6 50 0
-6 7 0
7 50 108 0
5 -48 -97 0
5 -6 -97 0
5 -6 -48 0
-5 48 97 0
-5 6 97 0
-5 6 48 0
5 -97 0
5 -48 0
5 -6 0
-6 -48 -97 0
4 -46 -104 0
4 -5 -104 0
4 -5 -46 0
-4 46 104 0
-4 5 104 0
-4 5 46 0
4 -104 0
4 -46 0
4 -5 0
-5 -46 -104 0
-3 44 0
-3 4 0
3 -4 -44 0
4 -44 0
-4 44 0
-2 42 0
-2 3 0
2 -3 -42 0
3 -42 0
-3 42 0
-1 40 0
-1 2 0
1 -2 -40 0
2 -40 0
-2 40 0
-1 -41 0
1 -41 0
-1 41 0
